c Modular CNF with 2 modules
c Generated CNF instance
p cnf 20 320
7 2 10 0
7 2 -10 0
7 -2 10 0
-7 2 10 0
6 2 8 0
6 2 -8 0
6 -2 8 0
-6 2 8 0
3 9 7 0
3 9 -7 0
3 -9 7 0
-3 9 7 0
3 4 9 0
3 4 -9 0
3 -4 9 0
-3 4 9 0
6 8 4 0
6 8 -4 0
6 -8 4 0
-6 8 4 0
6 4 8 0
6 4 -8 0
6 -4 8 0
-6 4 8 0
3 1 8 0
3 1 -8 0
3 -1 8 0
-3 1 8 0
3 8 7 0
3 8 -7 0
3 -8 7 0
-3 8 7 0
4 1 8 0
4 1 -8 0
4 -1 8 0
-4 1 8 0
4 9 3 0
4 9 -3 0
4 -9 3 0
-4 9 3 0
2 5 3 0
2 5 -3 0
2 -5 3 0
-2 5 3 0
5 2 1 0
5 2 -1 0
5 -2 1 0
-5 2 1 0
6 1 5 0
6 1 -5 0
6 -1 5 0
-6 1 5 0
5 9 2 0
5 9 -2 0
5 -9 2 0
-5 9 2 0
4 5 7 0
4 5 -7 0
4 -5 7 0
-4 5 7 0
6 4 9 0
6 4 -9 0
6 -4 9 0
-6 4 9 0
6 8 2 0
6 8 -2 0
6 -8 2 0
-6 8 2 0
5 7 8 0
5 7 -8 0
5 -7 8 0
-5 7 8 0
6 8 5 0
6 8 -5 0
6 -8 5 0
-6 8 5 0
8 6 1 0
8 6 -1 0
8 -6 1 0
-8 6 1 0
1 3 8 0
1 3 -8 0
1 -3 8 0
-1 3 8 0
2 4 5 0
2 4 -5 0
2 -4 5 0
-2 4 5 0
1 6 3 0
1 6 -3 0
1 -6 3 0
-1 6 3 0
4 3 6 0
4 3 -6 0
4 -3 6 0
-4 3 6 0
6 10 5 0
6 10 -5 0
6 -10 5 0
-6 10 5 0
8 4 7 0
8 4 -7 0
8 -4 7 0
-8 4 7 0
2 4 9 0
2 4 -9 0
2 -4 9 0
-2 4 9 0
5 10 7 0
5 10 -7 0
5 -10 7 0
-5 10 7 0
6 1 3 0
6 1 -3 0
6 -1 3 0
-6 1 3 0
2 8 7 0
2 8 -7 0
2 -8 7 0
-2 8 7 0
10 8 7 0
10 8 -7 0
10 -8 7 0
-10 8 7 0
7 9 1 0
7 9 -1 0
7 -9 1 0
-7 9 1 0
5 1 9 0
5 1 -9 0
5 -1 9 0
-5 1 9 0
4 10 2 0
4 10 -2 0
4 -10 2 0
-4 10 2 0
6 4 3 0
6 4 -3 0
6 -4 3 0
-6 4 3 0
2 10 3 0
2 10 -3 0
2 -10 3 0
-2 10 3 0
9 5 4 0
9 5 -4 0
9 -5 4 0
-9 5 4 0
9 6 2 0
9 6 -2 0
9 -6 2 0
-9 6 2 0
4 1 3 0
4 1 -3 0
4 -1 3 0
-4 1 3 0
3 6 10 0
3 6 -10 0
3 -6 10 0
-3 6 10 0
12 18 15 0
12 18 -15 0
12 -18 15 0
-12 18 15 0
14 20 15 0
14 20 -15 0
14 -20 15 0
-14 20 15 0
20 11 19 0
20 11 -19 0
20 -11 19 0
-20 11 19 0
14 13 18 0
14 13 -18 0
14 -13 18 0
-14 13 18 0
14 18 13 0
14 18 -13 0
14 -18 13 0
-14 18 13 0
15 19 17 0
15 19 -17 0
15 -19 17 0
-15 19 17 0
11 20 18 0
11 20 -18 0
11 -20 18 0
-11 20 18 0
20 11 17 0
20 11 -17 0
20 -11 17 0
-20 11 17 0
12 18 15 0
12 18 -15 0
12 -18 15 0
-12 18 15 0
14 11 17 0
14 11 -17 0
14 -11 17 0
-14 11 17 0
12 15 14 0
12 15 -14 0
12 -15 14 0
-12 15 14 0
16 14 20 0
16 14 -20 0
16 -14 20 0
-16 14 20 0
14 11 20 0
14 11 -20 0
14 -11 20 0
-14 11 20 0
20 13 11 0
20 13 -11 0
20 -13 11 0
-20 13 11 0
19 18 20 0
19 18 -20 0
19 -18 20 0
-19 18 20 0
13 20 17 0
13 20 -17 0
13 -20 17 0
-13 20 17 0
17 14 19 0
17 14 -19 0
17 -14 19 0
-17 14 19 0
16 12 15 0
16 12 -15 0
16 -12 15 0
-16 12 15 0
16 17 20 0
16 17 -20 0
16 -17 20 0
-16 17 20 0
18 17 14 0
18 17 -14 0
18 -17 14 0
-18 17 14 0
13 20 15 0
13 20 -15 0
13 -20 15 0
-13 20 15 0
17 15 12 0
17 15 -12 0
17 -15 12 0
-17 15 12 0
15 13 18 0
15 13 -18 0
15 -13 18 0
-15 13 18 0
17 13 18 0
17 13 -18 0
17 -13 18 0
-17 13 18 0
14 15 19 0
14 15 -19 0
14 -15 19 0
-14 15 19 0
19 12 16 0
19 12 -16 0
19 -12 16 0
-19 12 16 0
19 20 12 0
19 20 -12 0
19 -20 12 0
-19 20 12 0
13 20 18 0
13 20 -18 0
13 -20 18 0
-13 20 18 0
18 19 13 0
18 19 -13 0
18 -19 13 0
-18 19 13 0
14 13 17 0
14 13 -17 0
14 -13 17 0
-14 13 17 0
17 11 15 0
17 11 -15 0
17 -11 15 0
-17 11 15 0
12 20 17 0
12 20 -17 0
12 -20 17 0
-12 20 17 0
19 20 14 0
19 20 -14 0
19 -20 14 0
-19 20 14 0
18 16 17 0
18 16 -17 0
18 -16 17 0
-18 16 17 0
19 20 17 0
19 20 -17 0
19 -20 17 0
-19 20 17 0
18 11 20 0
18 11 -20 0
18 -11 20 0
-18 11 20 0
15 18 20 0
15 18 -20 0
15 -18 20 0
-15 18 20 0
14 20 12 0
14 20 -12 0
14 -20 12 0
-14 20 12 0
20 11 19 0
20 11 -19 0
20 -11 19 0
-20 11 19 0
15 13 11 0
15 13 -11 0
15 -13 11 0
-15 13 11 0
